

*************************************************************

   NEOS Server Version 6.0
   Job#     : 18295051
   Password : LThYQGAx
   User     : 
   Solver   : milp:Gurobi:AMPL
   Start    : 2026-01-29 01:19:24
   End      : 2026-01-29 09:21:35
   Host     : prod-sub-1.neos-server.org

   Disclaimer:

   This information is provided without any express or
   implied warranty. In particular, there is no warranty
   of any kind concerning the fitness of this
   information for any particular purpose.

   Announcements:
*************************************************************
You are using the solver gurobi_ampl.
Checking ampl.mod for gurobi_options...
Checking ampl.com for gurobi_options...
Executing AMPL.
processing data.
processing commands.
Executing on prod-exec-5.neos-server.org
N = 500


"option presolve 0;" used, but "option presolve 10;" might work better.
500 variables, all nonlinear
0 algebraic constraints
3 logical constraints
1 linear objective; 500 nonzeros.

Gurobi 12.0.3:   tech:threads = 4
  pre:solve = 1
  alg:iisfind = 1
Set parameter LogToConsole to value 1
  tech:outlev = 1

AMPL MP initial flat model has 500 variables (500 integer, 0 binary);
Objectives: 1 linear; 
Constraints:  1000 linear;
Logical expressions:  3 alldiff;

AMPL MP final model has 751504 variables (1503 integer, 750000 binary);
Objectives: 1 linear; 
Constraints:  5498 linear;


Set parameter InfUnbdInfo to value 1
Gurobi Optimizer version 12.0.3 build v12.0.3rc0 (linux64 - "Rocky Linux 8.10 (Green Obsidian)")

CPU model: Intel(R) Xeon(R) CPU E5-2430 0 @ 2.20GHz, instruction set [SSE2|AVX]
Thread count: 12 physical cores, 24 logical processors, using up to 4 threads

Non-default parameters:
InfUnbdInfo  1
Presolve  1
Threads  4

Optimize a model with 5498 rows, 751504 columns and 2252996 nonzeros
Model fingerprint: 0xdf54d274
Variable types: 1004 continuous, 750500 integer (0 binary)
Coefficient statistics:
  Matrix range     [1e+00, 1e+03]
  Objective range  [0e+00, 0e+00]
  Bounds range     [1e+00, 5e+02]
  RHS range        [1e+00, 5e+02]
Presolve removed 4 rows and 1004 columns (presolve time = 5s)...
Presolve removed 4 rows and 1004 columns
Presolve time: 5.17s
Presolved: 5494 rows, 750500 columns, 2249996 nonzeros
Variable types: 0 continuous, 750500 integer (750000 binary)
Deterministic concurrent LP optimizer: primal simplex, dual simplex, and barrier
Showing barrier log only...

Root barrier log...

Ordering time: 0.74s

Barrier statistics:
 AA' NZ     : 1.501e+06
 Factor NZ  : 4.704e+06 (roughly 340 MB of memory)
 Factor Ops : 5.291e+09 (less than 1 second per iteration)
 Threads    : 2

                  Objective                Residual
Iter       Primal          Dual         Primal    Dual     Compl     Time
   0   0.00000000e+00 -1.55937500e+03  6.18e+03 0.00e+00  3.13e-01    13s
   1   0.00000000e+00 -1.89615343e+03  2.60e+03 3.58e-02  1.34e-01    14s
   2   0.00000000e+00 -1.95632147e+03  9.96e+02 1.13e-02  5.23e-02    15s
   3   0.00000000e+00 -1.85299069e+03  4.64e+02 3.16e-03  2.47e-02    16s
   4   0.00000000e+00 -1.67036716e+03  9.20e+01 1.23e-03  5.62e-03    16s
   5   0.00000000e+00 -1.26426761e+03  1.82e+01 6.07e-04  1.63e-03    17s
   6   0.00000000e+00 -8.48959421e+02  9.93e+00 3.35e-04  9.10e-04    18s
   7   0.00000000e+00 -3.96553385e+02  6.65e+00 9.10e-05  3.93e-04    19s
   8   0.00000000e+00 -1.78263973e+02  8.94e-01 2.70e-05  1.30e-04    20s
   9   0.00000000e+00 -7.28602773e+00  1.15e-02 1.19e-07  4.87e-06    20s
  10   0.00000000e+00 -1.25941205e-04  1.90e-07 8.55e-13  8.39e-11    21s
  11   0.00000000e+00 -1.26307389e-10  9.71e-12 3.54e-16  8.42e-17    22s

Barrier solved model in 11 iterations and 21.61 seconds (9.50 work units)
Optimal objective 0.00000000e+00

  Building initial crossover basis                                25s
  Building initial crossover basis                                30s
  Building initial crossover basis                                35s
  Building initial crossover basis                                40s

Root crossover log...

    1068 DPushes remaining with DInf 0.0000000e+00                43s
       0 DPushes remaining with DInf 0.0000000e+00                44s

     954 PPushes remaining with PInf 1.7919415e-05                44s
       0 PPushes remaining with PInf 0.0000000e+00                44s

  Push phase complete: Pinf 0.0000000e+00, Dinf 0.0000000e+00     45s


Root simplex log...

Iteration    Objective       Primal Inf.    Dual Inf.      Time
    1551    0.0000000e+00   0.000000e+00   0.000000e+00     45s
Concurrent spin time: 0.84s

Solved with barrier
    1551    0.0000000e+00   0.000000e+00   0.000000e+00     46s

Root relaxation: objective 0.000000e+00, 1551 iterations, 36.57 seconds (14.74 work units)
Total elapsed time = 169.65s (DegenMoves)
Total elapsed time = 190.29s (DegenMoves)
Total elapsed time = 259.36s (DegenMoves)
Total elapsed time = 315.32s (DegenMoves)

    Nodes    |    Current Node    |     Objective Bounds      |     Work
 Expl Unexpl |  Obj  Depth IntInf | Incumbent    BestBd   Gap | It/Node Time

     0     0    0.00000    0 2295          -    0.00000      -     -  372s
     0     0    0.00000    0 3262          -    0.00000      -     -  495s
     0     0    0.00000    0 3492          -    0.00000      -     -  616s
     0     0    0.00000    0 2479          -    0.00000      -     - 1161s
     0     0    0.00000    0 3228          -    0.00000      -     - 1268s
     0     0    0.00000    0 3401          -    0.00000      -     - 1633s
     0     0    0.00000    0 3401          -    0.00000      -     - 1807s
     0     2    0.00000    0 3401          -    0.00000      -     - 2512s
     1     4    0.00000    1 3324          -    0.00000      - 40160 2565s
     3     6    0.00000    2 3367          -    0.00000      - 20485 2893s
     5     9    0.00000    3 3438          -    0.00000      - 16566 3544s
     8    13    0.00000    4 3276          -    0.00000      - 17711 3994s
    12    20    0.00000    5 3224          -    0.00000      - 21424 4749s
    29    58 infeasible    6               -    0.00000      - 12922 5290s
   109   113    0.00000   15 3130          -    0.00000      -  8587 5468s
   277   180    0.00000   26 3107          -    0.00000      -  6169 5694s
   437   240    0.00000   47 3113          -    0.00000      -  6051 5922s
   605   281 infeasible   67               -    0.00000      -  6120 6085s
   773   322 infeasible   86               -    0.00000      -  5675 6288s
   936   359    0.00000    9 3405          -    0.00000      -  5526 6488s
  1084   406 infeasible    7               -    0.00000      -  5652 6685s
  1244   460    0.00000   32 3263          -    0.00000      -  5757 6866s
  1412   492    0.00000   56 3130          -    0.00000      -  5702 7051s
  1533   526    0.00000   67 3106          -    0.00000      -  5757 7204s
  1701   564    0.00000   85 3005          -    0.00000      -  5630 7379s
  1869   604 infeasible  101               -    0.00000      -  5498 7589s
  2021   634 infeasible  172               -    0.00000      -  5455 7777s
  2182   671    0.00000  185 2773          -    0.00000      -  5443 7918s
  2350   719    0.00000  202 2650          -    0.00000      -  5329 8049s
  2519   720    0.00000   28 3401          -    0.00000      -  5223 9551s
  2521   721    0.00000  214 2319          -    0.00000      -  5218 9871s
  2522   722    0.00000   42 3182          -    0.00000      -  5216 10211s
  2523   723    0.00000   52 3316          -    0.00000      -  5214 10441s
  2524   723    0.00000  193 2455          -    0.00000      -  5212 11110s
  2525   724    0.00000   58 3299          -    0.00000      -  5210 11242s
  2526   725    0.00000   55 2380          -    0.00000      -  5208 11851s
  2527   725    0.00000  126 3173          -    0.00000      -  5206 11970s
  2528   726    0.00000  199 3479          -    0.00000      -  5204 12375s
  2529   727    0.00000   92 3513          -    0.00000      -  5202 12636s
  2530   727    0.00000   18 2511          -    0.00000      -  5200 13275s
  2531   728    0.00000  154 2401          -    0.00000      -  5198 13421s
  2532   729    0.00000    5 2401          -    0.00000      -  5196 13615s
  2533   731    0.00000   10 2412          -    0.00000      -   395 13818s
  2534   734    0.00000   11 2410          -    0.00000      -   395 13913s
  2537   737    0.00000   12 2438          -    0.00000      -   397 14175s
  2541   753    0.00000   13 2438          -    0.00000      -   408 14369s
  2558   768    0.00000   18 2924          -    0.00000      -   504 14758s
  2585   784    0.00000   23 2903          -    0.00000      -   650 15475s
  2616   830    0.00000   25 2963          -    0.00000      -   965 15780s
  2784   823    0.00000   46 2928          -    0.00000      -  1494 16044s
  2952   774    0.00000   62 2916          -    0.00000      -  1906 16471s
  2973   815    0.00000   65 3025          -    0.00000      -  2023 16894s
  3129   771    0.00000   80 2880          -    0.00000      -  2367 17566s
  3145   809 infeasible   84               -    0.00000      -  2539 17817s
  3313   770    0.00000   96 2801          -    0.00000      -  2914 18187s
  3392   769    0.00000  104 2750          -    0.00000      -  3238 18589s
  3465   766 infeasible  110               -    0.00000      -  3594 19010s
  3550   781    0.00000  118 2707          -    0.00000      -  3866 19430s
  3706   735 infeasible  138               -    0.00000      -  4208 19953s
  3726   768    0.00000   20 2938          -    0.00000      -  4352 20176s
  3894   745    0.00000   41 3037          -    0.00000      -  4518 20381s
  4062   689    0.00000   60 2957          -    0.00000      -  4669 20823s
  4076   718    0.00000   61 2932          -    0.00000      -  4754 21047s
  4244   665 infeasible   79               -    0.00000      -  4891 21374s
  4269   685    0.00000   82 2910          -    0.00000      -  4997 21627s
  4437   632    0.00000   96 2837          -    0.00000      -  5191 22201s
  4444   661    0.00000   97 2846          -    0.00000      -  5274 22481s
  4612   622 infeasible  115               -    0.00000      -  5407 22750s
  4780   588 infeasible  129               -    0.00000      -  5434 23538s
  4789   620 infeasible  205               -    0.00000      -  5597 23768s
  4957   644    0.00000  218 2623          -    0.00000      -  5655 23983s
  5125   647    0.00000  231 2546          -    0.00000      -  5662 24818s
  5130   675 infeasible  232               -    0.00000      -  5799 24959s
  5298   695 infeasible  243               -    0.00000      -  5776 25142s
  5466   716    0.00000  259 2706          -    0.00000      -  5765 25400s
  5611   718 infeasible  275               -    0.00000      -  5798 25948s
  5619   742 infeasible  275               -    0.00000      -  5909 26158s
  5787   767    0.00000  287 2577          -    0.00000      -  5967 26324s
  5955   770    0.00000  301 2532          -    0.00000      -  5975 26787s
  5960   788 infeasible  302               -    0.00000      -  6056 27046s
  6115   806    0.00000  320 2659          -    0.00000      -  6080 27268s
  6241   807 infeasible  334               -    0.00000      -  6086 27749s
  6250   829 infeasible  335               -    0.00000      -  6201 27925s
  6418   845 infeasible  349               -    0.00000      -  6183 28090s
  6586   847    0.00000  362 2539          -    0.00000      -  6168 28386s
  6592   874 infeasible  363               -    0.00000      -  6225 28598s
  6753   878    0.00000  371 2511          -    0.00000      -  6283 28904s

ERROR: Your job was terminated because it exceeded the maximum allotted time for a job.

Please refer to the NEOS Server FAQ (https://neos-guide.org/content/FAQ) for more information regarding job termination conditions and potential solutions.

NEOS Server Home

